\ LP format - for model browsing. Use MPS format to capture full model detail.
Minimize
  0 b_1[0,0] + 0 b_1_2[0,0] + 0 b_1_4[0,0] + 0 b_6[0,0] + 0 b_6_7[0,0]
   + 0 b_6_9[0,0] + 0 b_6_10[0,0]
Subject To
 R0: b = 1
 R1: x[0,0] - 10000 b_1_3[0,0] >= -9995
 R2: x[0,0] - 10000 b_1_3[0,0] <= 4.9999
 R3: x[0,1] - 10000 b_1_3[0,1] >= -9995
 R4: x[0,1] - 10000 b_1_3[0,1] <= 4.9999
 R5: x[0,2] - 10000 b_1_3[0,2] >= -9995
 R6: x[0,2] - 10000 b_1_3[0,2] <= 4.9999
 R7: x[0,3] - 10000 b_1_3[0,3] >= -9995
 R8: x[0,3] - 10000 b_1_3[0,3] <= 4.9999
 R9: - y[0,0] - 10000 b_1_5[0,0] >= -10001.9999
 R10: - y[0,0] - 10000 b_1_5[0,0] <= -2
 R11: - y[0,1] - 10000 b_1_5[0,1] >= -10001.9999
 R12: - y[0,1] - 10000 b_1_5[0,1] <= -2
 R13: - y[0,2] - 10000 b_1_5[0,2] >= -10001.9999
 R14: - y[0,2] - 10000 b_1_5[0,2] <= -2
 R15: - y[0,3] - 10000 b_1_5[0,3] >= -10001.9999
 R16: - y[0,3] - 10000 b_1_5[0,3] <= -2
 R17: - x[0,0] - 10000 b_6_8[0,0] >= -10004.9999
 R18: - x[0,0] - 10000 b_6_8[0,0] <= -5
 R19: - x[0,1] - 10000 b_6_8[0,1] >= -10004.9999
 R20: - x[0,1] - 10000 b_6_8[0,1] <= -5
 R21: - x[0,2] - 10000 b_6_8[0,2] >= -10004.9999
 R22: - x[0,2] - 10000 b_6_8[0,2] <= -5
 R23: - x[0,3] - 10000 b_6_8[0,3] >= -10004.9999
 R24: - x[0,3] - 10000 b_6_8[0,3] <= -5
 R25: y[0,1] - 10000 b_6_10[0,1] >= -9997
 R26: y[0,1] - 10000 b_6_10[0,1] <= 2.9999
 R27: y[0,2] - 10000 b_6_10[0,2] >= -9997
 R28: y[0,2] - 10000 b_6_10[0,2] <= 2.9999
 R29: y[0,3] - 10000 b_6_10[0,3] >= -9997
 R30: y[0,3] - 10000 b_6_10[0,3] <= 2.9999
Bounds
 -10000 <= x[0,0] <= 10000
 -10000 <= x[0,1] <= 10000
 -10000 <= x[0,2] <= 10000
 -10000 <= x[0,3] <= 10000
 -10000 <= y[0,0] <= 10000
 -10000 <= y[0,1] <= 10000
 -10000 <= y[0,2] <= 10000
 -10000 <= y[0,3] <= 10000
Binaries
 b b_1[0,0] b_1_2[0,0] b_1_3[0,0] b_1_3[0,1] b_1_3[0,2] b_1_3[0,3]
 b_1_4[0,0] b_1_5[0,0] b_1_5[0,1] b_1_5[0,2] b_1_5[0,3] b_6[0,0] b_6_7[0,0]
 b_6_8[0,0] b_6_8[0,1] b_6_8[0,2] b_6_8[0,3] b_6_9[0,0] b_6_10[0,0]
 b_6_10[0,1] b_6_10[0,2] b_6_10[0,3]
General Constraints
 GC0: b_1_2[0,0] = AND ( b_1_3[0,0] , b_1_3[0,1] , b_1_3[0,2] , b_1_3[0,3] )
 GC1: b_1_4[0,0] = OR ( b_1_5[0,0] , b_1_5[0,1] , b_1_5[0,2] , b_1_5[0,3] )
 GC2: b_1[0,0] = AND ( b_1_2[0,0] , b_1_4[0,0] )
 GC3: b_6_7[0,0] = AND ( b_6_8[0,0] , b_6_8[0,1] , b_6_8[0,2] , b_6_8[0,3] )
 GC4: b_6_9[0,0] = OR ( b_6_10[0,1] , b_6_10[0,2] , b_6_10[0,3] )
 GC5: b_6[0,0] = OR ( b_6_7[0,0] , b_6_9[0,0] )
 GC6: b = AND ( b_1[0,0] , b_6[0,0] )
End
